6	4
2	3	1	30	3	36	2	33	3	4	54	2	48	3	51
2	3	2	30	4	24	3	36	3	4	54	1	60	2	48
2	3	1	30	3	36	2	24	3	3	60	2	54	4	66
3	3	2	30	4	33	1	39	3	3	45	1	51	4	39	3	4	36	2	27	3	33
3	3	1	30	4	36	2	24	3	2	45	1	42	3	42	3	4	36	3	33	1	45
3	3	1	30	3	33	2	36	3	2	45	4	39	3	42	3	3	36	2	39	4	33
0	2	4	5	7
9	0	2	3	5
10	7	0	4	3
6	4	3	0	3
7	7	6	3	0
